35
1 0 8
2 0 41
2 1 3
3 0 3
3 1 9
3 2 33
4 0 39
4 1 38
4 2 22
4 3 5
5 0 40
5 1 34
5 2 18
5 3 34
5 4 34
6 0 37
6 1 21
6 2 25
6 3 3
6 4 32
6 5 23
7 0 21
7 1 24
7 2 29
7 3 16
7 4 11
7 5 1
7 6 36
8 0 19
8 1 40
8 2 10
8 3 16
8 4 13
8 5 41
8 6 27
8 7 37
9 0 34
9 1 25
9 2 33
9 3 34
9 4 12
9 5 34
9 6 14
9 7 25
9 8 28
10 0 35
10 1 19
10 2 2
10 3 10
10 4 20
10 5 39
10 6 23
10 7 28
10 8 30
10 9 1
11 0 34
11 1 26
11 2 42
11 3 5
11 4 31
11 5 35
11 6 14
11 7 30
11 8 12
11 9 15
11 10 22
12 0 10
12 1 40
12 2 40
12 3 17
12 4 33
12 5 23
12 6 6
12 7 12
12 8 24
12 9 3
12 10 31
12 11 22
13 0 41
13 1 13
13 2 42
13 3 28
13 4 12
13 5 42
13 6 13
13 7 25
13 8 26
13 9 32
13 10 18
13 11 31
13 12 23
14 0 26
14 1 24
14 2 42
14 3 19
14 4 9
14 5 28
14 6 21
14 7 24
14 8 12
14 9 41
14 10 30
14 11 15
14 12 1
14 13 22
15 0 35
15 1 27
15 2 16
15 3 7
15 4 20
15 5 21
15 6 19
15 7 16
15 8 4
15 9 4
15 10 17
15 11 37
15 12 30
15 13 27
15 14 27
16 0 33
16 1 17
16 2 19
16 3 8
16 4 36
16 5 21
16 6 30
16 7 24
16 8 7
16 9 27
16 10 11
16 11 21
16 12 42
16 13 20
16 14 26
16 15 4
17 0 5
17 1 38
17 2 9
17 3 36
17 4 18
17 5 22
17 6 12
17 7 4
17 8 36
17 9 6
17 10 1
17 11 36
17 12 39
17 13 24
17 14 40
17 15 23
17 16 11
18 0 33
18 1 21
18 2 21
18 3 9
18 4 7
18 5 27
18 6 32
18 7 3
18 8 29
18 9 16
18 10 5
18 11 28
18 12 4
18 13 42
18 14 27
18 15 23
18 16 13
18 17 16
19 0 12
19 1 30
19 2 33
19 3 12
19 4 40
19 5 22
19 6 31
19 7 42
19 8 16
19 9 33
19 10 36
19 11 19
19 12 27
19 13 30
19 14 19
19 15 25
19 16 6
19 17 5
19 18 11
20 0 37
20 1 15
20 2 22
20 3 27
20 4 6
20 5 32
20 6 31
20 7 31
20 8 37
20 9 29
20 10 4
20 11 10
20 12 10
20 13 1
20 14 20
20 15 39
20 16 32
20 17 39
20 18 31
20 19 27
21 0 37
21 1 5
21 2 14
21 3 20
21 4 38
21 5 16
21 6 39
21 7 3
21 8 20
21 9 12
21 10 29
21 11 2
21 12 14
21 13 6
21 14 11
21 15 33
21 16 22
21 17 6
21 18 32
21 19 18
21 20 12
22 0 26
22 1 8
22 2 24
22 3 26
22 4 8
22 5 5
22 6 8
22 7 5
22 8 15
22 9 34
22 10 19
22 11 9
22 12 21
22 13 21
22 14 34
22 15 21
22 16 27
22 17 11
22 18 21
22 19 19
22 20 39
22 21 12
23 0 4
23 1 31
23 2 20
23 3 12
23 4 36
23 5 41
23 6 18
23 7 32
23 8 6
23 9 19
23 10 13
23 11 11
23 12 42
23 13 31
23 14 30
23 15 31
23 16 29
23 17 16
23 18 1
23 19 24
23 20 39
23 21 32
23 22 16
24 0 1
24 1 35
24 2 21
24 3 34
24 4 14
24 5 42
24 6 42
24 7 3
24 8 14
24 9 14
24 10 15
24 11 10
24 12 20
24 13 15
24 14 42
24 15 8
24 16 36
24 17 4
24 18 26
24 19 11
24 20 12
24 21 2
24 22 31
24 23 26
25 0 26
25 1 18
25 2 41
25 3 20
25 4 4
25 5 41
25 6 9
25 7 7
25 8 3
25 9 9
25 10 41
25 11 2
25 12 25
25 13 11
25 14 20
25 15 34
25 16 30
25 17 7
25 18 26
25 19 3
25 20 12
25 21 19
25 22 40
25 23 30
25 24 41
26 0 34
26 1 25
26 2 35
26 3 19
26 4 19
26 5 21
26 6 6
26 7 2
26 8 24
26 9 10
26 10 3
26 11 17
26 12 40
26 13 38
26 14 1
26 15 40
26 16 26
26 17 17
26 18 16
26 19 6
26 20 30
26 21 27
26 22 21
26 23 29
26 24 32
26 25 34
27 0 25
27 1 16
27 2 17
27 3 20
27 4 4
27 5 17
27 6 12
27 7 17
27 8 11
27 9 34
27 10 5
27 11 10
27 12 35
27 13 34
27 14 23
27 15 11
27 16 8
27 17 41
27 18 30
27 19 14
27 20 1
27 21 28
27 22 28
27 23 12
27 24 38
27 25 10
27 26 26
28 0 22
28 1 41
28 2 15
28 3 5
28 4 27
28 5 21
28 6 12
28 7 21
28 8 16
28 9 18
28 10 22
28 11 6
28 12 1
28 13 41
28 14 42
28 15 17
28 16 5
28 17 34
28 18 42
28 19 8
28 20 17
28 21 12
28 22 23
28 23 35
28 24 40
28 25 11
28 26 28
28 27 12
29 0 39
29 1 37
29 2 40
29 3 9
29 4 37
29 5 26
29 6 18
29 7 9
29 8 3
29 9 27
29 10 3
29 11 15
29 12 7
29 13 36
29 14 21
29 15 35
29 16 39
29 17 27
29 18 34
29 19 9
29 20 40
29 21 33
29 22 26
29 23 41
29 24 1
29 25 11
29 26 28
29 27 30
29 28 30
30 0 3
30 1 17
30 2 31
30 3 41
30 4 39
30 5 42
30 6 36
30 7 42
30 8 24
30 9 34
30 10 11
30 11 31
30 12 14
30 13 1
30 14 42
30 15 30
30 16 38
30 17 36
30 18 30
30 19 35
30 20 15
30 21 37
30 22 8
30 23 36
30 24 14
30 25 9
30 26 1
30 27 3
30 28 15
30 29 20
31 0 32
31 1 36
31 2 5
31 3 6
31 4 33
31 5 5
31 6 6
31 7 5
31 8 10
31 9 10
31 10 36
31 11 14
31 12 28
31 13 35
31 14 17
31 15 7
31 16 1
31 17 39
31 18 19
31 19 5
31 20 12
31 21 15
31 22 35
31 23 15
31 24 34
31 25 37
31 26 1
31 27 20
31 28 19
31 29 33
31 30 22
32 0 8
32 1 26
32 2 17
32 3 26
32 4 18
32 5 39
32 6 31
32 7 15
32 8 1
32 9 19
32 10 32
32 11 26
32 12 15
32 13 18
32 14 26
32 15 18
32 16 6
32 17 35
32 18 18
32 19 1
32 20 26
32 21 12
32 22 26
32 23 20
32 24 24
32 25 27
32 26 30
32 27 23
32 28 3
32 29 16
32 30 16
32 31 20
33 0 38
33 1 8
33 2 41
33 3 18
33 4 38
33 5 20
33 6 26
33 7 7
33 8 35
33 9 12
33 10 7
33 11 7
33 12 16
33 13 6
33 14 4
33 15 33
33 16 28
33 17 27
33 18 9
33 19 39
33 20 39
33 21 39
33 22 36
33 23 26
33 24 27
33 25 17
33 26 12
33 27 37
33 28 4
33 29 6
33 30 27
33 31 34
33 32 8
34 0 35
34 1 12
34 2 11
34 3 37
34 4 31
34 5 20
34 6 6
34 7 34
34 8 9
34 9 7
34 10 7
34 11 35
34 12 6
34 13 33
34 14 38
34 15 12
34 16 33
34 17 8
34 18 12
34 19 31
34 20 39
34 21 12
34 22 27
34 23 8
34 24 8
34 25 19
34 26 20
34 27 39
34 28 17
34 29 26
34 30 13
34 31 30
34 32 26
34 33 41
